ilp_joint/output/conduction_ilp.lp
Maximize
  0.1586201677667442 Z_634_0_0 + 0.061053280450142 Z_634_0_1
   + 0.0368319259700765 Z_634_0_2 + 0.0628167354745694 Z_634_0_3
   + 0.00403006319455451 Z_375_0_0 + 0.0527452368751988 Z_375_0_1
   + 0.1796841434611652 Z_375_0_2 + 0.01020346254854 Z_375_0_3
   + 6.7389279936515007e-04 Z_600_0_0 + 0.0377778209800052 Z_600_0_1
   + 0.6554379800988804 Z_600_0_2 + 0.0106640326155907 Z_600_0_3
   + 0.1926956853134276 Z_243_0_0 + 0.0688560600269518 Z_243_0_1
   + 0.036739913811369 Z_243_0_2 + 0.029171510271044 Z_243_0_3
   + 0.00385822509907917 Z_243_1_0 + 0.0117091704466051 Z_243_1_1
   + 0.7847007683235607 Z_243_1_2 + 0.00775209384863718 Z_243_1_3 + [
   4.4444444444444436e-04 Z_600_0_0 * Z_243_0_0
   + 4.4444444444444436e-04 Z_600_0_1 * Z_243_0_1
   + 4.4444444444444436e-04 Z_600_0_2 * Z_243_0_2
   + 4.4444444444444436e-04 Z_600_0_3 * Z_243_0_3 ] / 2 
Subject To
 constraint1_6340: Z_634_0_0 + Z_634_0_1 + Z_634_0_2 + Z_634_0_3 <= 1
 constraint1_3750: Z_375_0_0 + Z_375_0_1 + Z_375_0_2 + Z_375_0_3 <= 1
 constraint1_6000: Z_600_0_0 + Z_600_0_1 + Z_600_0_2 + Z_600_0_3 <= 1
 constraint1_2430: Z_243_0_0 + Z_243_0_1 + Z_243_0_2 + Z_243_0_3 <= 1
 constraint1_2431: Z_243_1_0 + Z_243_1_1 + Z_243_1_2 + Z_243_1_3 <= 1
 constraint2_6340: Z_634_0_0 <= 1
 constraint2_6341: Z_634_0_1 <= 1
 constraint2_6342: Z_634_0_2 <= 1
 constraint2_6343: Z_634_0_3 <= 1
 constraint2_3750: Z_375_0_0 <= 1
 constraint2_3751: Z_375_0_1 <= 1
 constraint2_3752: Z_375_0_2 <= 1
 constraint2_3753: Z_375_0_3 <= 1
 constraint2_6000: Z_600_0_0 <= 1
 constraint2_6001: Z_600_0_1 <= 1
 constraint2_6002: Z_600_0_2 <= 1
 constraint2_6003: Z_600_0_3 <= 1
 constraint2_2430: Z_243_0_0 + Z_243_1_0 <= 1
 constraint2_2431: Z_243_0_1 + Z_243_1_1 <= 1
 constraint2_2432: Z_243_0_2 + Z_243_1_2 <= 1
 constraint2_2433: Z_243_0_3 + Z_243_1_3 <= 1
Bounds
Binaries
 Z_634_0_0 Z_634_0_1 Z_634_0_2 Z_634_0_3 Z_375_0_0 Z_375_0_1 Z_375_0_2
 Z_375_0_3 Z_600_0_0 Z_600_0_1 Z_600_0_2 Z_600_0_3 Z_243_0_0 Z_243_0_1
 Z_243_0_2 Z_243_0_3 Z_243_1_0 Z_243_1_1 Z_243_1_2 Z_243_1_3
End
