ilp_joint/output/conduction_ilp.mps
NAME conduction_srl_ilp
* Max problem is converted into Min one
ROWS
 N  OBJ
 L  constraint1_7410
 L  constraint1_3190
 L  constraint1_5070
 L  constraint1_5451
 L  constraint1_5450
 L  constraint1_6636
 L  constraint1_6632
 L  constraint1_6631
 L  constraint1_5031
 L  constraint1_5030
 L  constraint1_5731
 L  constraint1_5730
 L  constraint1_320
 L  constraint2_7410
 L  constraint2_7411
 L  constraint2_7412
 L  constraint2_7413
 L  constraint2_3190
 L  constraint2_3191
 L  constraint2_3192
 L  constraint2_3193
 L  constraint2_5070
 L  constraint2_5071
 L  constraint2_5072
 L  constraint2_5073
 L  constraint2_5450
 L  constraint2_5451
 L  constraint2_5452
 L  constraint2_5453
 L  constraint2_6630
 L  constraint2_6631
 L  constraint2_6632
 L  constraint2_6633
 L  constraint2_5030
 L  constraint2_5031
 L  constraint2_5032
 L  constraint2_5033
 L  constraint2_5730
 L  constraint2_5731
 L  constraint2_5732
 L  constraint2_5733
 L  constraint2_1900
 L  constraint2_1901
 L  constraint2_1902
 L  constraint2_1903
 L  constraint2_320
 L  constraint2_321
 L  constraint2_322
 L  constraint2_323
COLUMNS
    MARKER    'MARKER'                 'INTORG'
    Z_741_0_0  OBJ       -1.8687041531010118e-01
    Z_741_0_0  constraint1_7410  1
    Z_741_0_0  constraint2_7410  1
    Z_741_0_1  OBJ       -8.9441639752109711e-02
    Z_741_0_1  constraint1_7410  1
    Z_741_0_1  constraint2_7411  1
    Z_741_0_2  OBJ       -4.8052632471645595e-02
    Z_741_0_2  constraint1_7410  1
    Z_741_0_2  constraint2_7412  1
    Z_741_0_3  OBJ       -1.1958292951807217e-01
    Z_741_0_3  constraint1_7410  1
    Z_741_0_3  constraint2_7413  1
    Z_741_0_4  OBJ       -4.5605238294807127e-01
    Z_741_0_4  constraint1_7410  1
    Z_319_0_0  OBJ       -4.4865354496373484e-05
    Z_319_0_0  constraint1_3190  1
    Z_319_0_0  constraint2_3190  1
    Z_319_0_1  OBJ       -3.0081403786336781e-03
    Z_319_0_1  constraint1_3190  1
    Z_319_0_1  constraint2_3191  1
    Z_319_0_2  OBJ       -8.2005190035752717e-01
    Z_319_0_2  constraint1_3190  1
    Z_319_0_2  constraint2_3192  1
    Z_319_0_3  OBJ       -2.3311603885416434e-03
    Z_319_0_3  constraint1_3190  1
    Z_319_0_3  constraint2_3193  1
    Z_319_0_4  OBJ       -7.4563933520801137e-02
    Z_319_0_4  constraint1_3190  1
    Z_507_0_0  OBJ       -4.6384108800002999e-05
    Z_507_0_0  constraint1_5070  1
    Z_507_0_0  constraint2_5070  1
    Z_507_0_1  OBJ       -3.1092983672326244e-03
    Z_507_0_1  constraint1_5070  1
    Z_507_0_1  constraint2_5071  1
    Z_507_0_2  OBJ       -8.5424367522399658e-01
    Z_507_0_2  constraint1_5070  1
    Z_507_0_2  constraint2_5072  1
    Z_507_0_3  OBJ       -2.3985636380293566e-03
    Z_507_0_3  constraint1_5070  1
    Z_507_0_3  constraint2_5073  1
    Z_507_0_4  OBJ       -4.0202078661941330e-02
    Z_507_0_4  constraint1_5070  1
    Z_545_1_0  OBJ       -4.3482433313007956e-04
    Z_545_1_0  constraint1_5451  1
    Z_545_1_0  constraint2_5450  1
    Z_545_1_1  OBJ       -1.5388469564767517e-03
    Z_545_1_1  constraint1_5451  1
    Z_545_1_1  constraint2_5451  1
    Z_545_1_2  OBJ       -7.5726530710771689e-01
    Z_545_1_2  constraint1_5451  1
    Z_545_1_2  constraint2_5452  1
    Z_545_1_3  OBJ       -2.5363641055242553e-03
    Z_545_1_3  constraint1_5451  1
    Z_545_1_3  constraint2_5453  1
    Z_545_1_4  OBJ       -1.3822465749715204e-01
    Z_545_1_4  constraint1_5451  1
    Z_545_0_0  OBJ       -3.5895291484415903e-01
    Z_545_0_0  constraint1_5450  1
    Z_545_0_0  constraint2_5450  1
    Z_545_0_1  OBJ       -5.2337050740841821e-02
    Z_545_0_1  constraint1_5450  1
    Z_545_0_1  constraint2_5451  1
    Z_545_0_2  OBJ       -3.1927467870859337e-02
    Z_545_0_2  constraint1_5450  1
    Z_545_0_2  constraint2_5452  1
    Z_545_0_3  OBJ       -5.1429164036225737e-02
    Z_545_0_3  constraint1_5450  1
    Z_545_0_3  constraint2_5453  1
    Z_545_0_4  OBJ       -4.0535340250791418e-01
    Z_545_0_4  constraint1_5450  1
    Z_663_6_0  OBJ       -4.9012773038274798e-01
    Z_663_6_0  constraint1_6636  1
    Z_663_6_0  constraint2_6630  1
    Z_663_6_1  OBJ       -8.9819240056831697e-03
    Z_663_6_1  constraint1_6636  1
    Z_663_6_1  constraint2_6631  1
    Z_663_6_2  OBJ       -1.7581735557894780e-02
    Z_663_6_2  constraint1_6636  1
    Z_663_6_2  constraint2_6632  1
    Z_663_6_3  OBJ       -2.7335487734740926e-02
    Z_663_6_3  constraint1_6636  1
    Z_663_6_3  constraint2_6633  1
    Z_663_6_4  OBJ       -3.5597312231893313e-01
    Z_663_6_4  constraint1_6636  1
    Z_663_2_0  OBJ       -1.6288458144866146e-02
    Z_663_2_0  constraint1_6632  1
    Z_663_2_0  constraint2_6630  1
    Z_663_2_1  OBJ       -3.1933435085303914e-03
    Z_663_2_1  constraint1_6632  1
    Z_663_2_1  constraint2_6631  1
    Z_663_2_2  OBJ       -1.1354571188798376e-01
    Z_663_2_2  constraint1_6632  1
    Z_663_2_2  constraint2_6632  1
    Z_663_2_3  OBJ       -3.9387053927950480e-03
    Z_663_2_3  constraint1_6632  1
    Z_663_2_3  constraint2_6633  1
    Z_663_2_4  OBJ       -7.6303378106582476e-01
    Z_663_2_4  constraint1_6632  1
    Z_663_1_0  OBJ       -1.6288458144866146e-02
    Z_663_1_0  constraint1_6631  1
    Z_663_1_0  constraint2_6630  1
    Z_663_1_1  OBJ       -3.1933435085303914e-03
    Z_663_1_1  constraint1_6631  1
    Z_663_1_1  constraint2_6631  1
    Z_663_1_2  OBJ       -1.1354571188798376e-01
    Z_663_1_2  constraint1_6631  1
    Z_663_1_2  constraint2_6632  1
    Z_663_1_3  OBJ       -3.9387053927950480e-03
    Z_663_1_3  constraint1_6631  1
    Z_663_1_3  constraint2_6633  1
    Z_663_1_4  OBJ       -7.6303378106582476e-01
    Z_663_1_4  constraint1_6631  1
    Z_503_1_0  OBJ       -3.2952567039261962e-04
    Z_503_1_0  constraint1_5031  1
    Z_503_1_0  constraint2_5030  1
    Z_503_1_1  OBJ       -1.6493561127612487e-03
    Z_503_1_1  constraint1_5031  1
    Z_503_1_1  constraint2_5031  1
    Z_503_1_2  OBJ       -7.4445214088099154e-01
    Z_503_1_2  constraint1_5031  1
    Z_503_1_2  constraint2_5032  1
    Z_503_1_3  OBJ       -4.8612691218180153e-04
    Z_503_1_3  constraint1_5031  1
    Z_503_1_3  constraint2_5033  1
    Z_503_1_4  OBJ       -1.5308285042367295e-01
    Z_503_1_4  constraint1_5031  1
    Z_503_0_0  OBJ       -5.2212591018691279e-01
    Z_503_0_0  constraint1_5030  1
    Z_503_0_0  constraint2_5030  1
    Z_503_0_1  OBJ       -3.7885424515885349e-02
    Z_503_0_1  constraint1_5030  1
    Z_503_0_1  constraint2_5031  1
    Z_503_0_2  OBJ       -2.2487567324986159e-02
    Z_503_0_2  constraint1_5030  1
    Z_503_0_2  constraint2_5032  1
    Z_503_0_3  OBJ       -3.5199095811694926e-02
    Z_503_0_3  constraint1_5030  1
    Z_503_0_3  constraint2_5033  1
    Z_503_0_4  OBJ       -2.8230200216052082e-01
    Z_503_0_4  constraint1_5030  1
    Z_573_1_0  OBJ       -3.1292058409322117e-04
    Z_573_1_0  constraint1_5731  1
    Z_573_1_0  constraint2_5730  1
    Z_573_1_1  OBJ       -1.2963132205794845e-03
    Z_573_1_1  constraint1_5731  1
    Z_573_1_1  constraint2_5731  1
    Z_573_1_2  OBJ       -8.0807530777307279e-01
    Z_573_1_2  constraint1_5731  1
    Z_573_1_2  constraint2_5732  1
    Z_573_1_3  OBJ       -5.4714234756187167e-04
    Z_573_1_3  constraint1_5731  1
    Z_573_1_3  constraint2_5733  1
    Z_573_1_4  OBJ       -8.9768316074692614e-02
    Z_573_1_4  constraint1_5731  1
    Z_573_0_0  OBJ       -4.8878233346800831e-01
    Z_573_0_0  constraint1_5730  1
    Z_573_0_0  constraint2_5730  1
    Z_573_0_1  OBJ       -1.6679320922642786e-02
    Z_573_0_1  constraint1_5730  1
    Z_573_0_1  constraint2_5731  1
    Z_573_0_2  OBJ       -2.0962132462348130e-02
    Z_573_0_2  constraint1_5730  1
    Z_573_0_2  constraint2_5732  1
    Z_573_0_3  OBJ       -2.0917287593102924e-02
    Z_573_0_3  constraint1_5730  1
    Z_573_0_3  constraint2_5733  1
    Z_573_0_4  OBJ       -3.5265892555389794e-01
    Z_573_0_4  constraint1_5730  1
    Z_32_0_0  OBJ       -3.3238417858601808e-05
    Z_32_0_0  constraint1_320  1
    Z_32_0_0  constraint2_320  1
    Z_32_0_1  OBJ       -3.7868080757711853e-03
    Z_32_0_1  constraint1_320  1
    Z_32_0_1  constraint2_321  1
    Z_32_0_2  OBJ       -8.8129468542701450e-01
    Z_32_0_2  constraint1_320  1
    Z_32_0_2  constraint2_322  1
    Z_32_0_3  OBJ       -2.5212592671852618e-03
    Z_32_0_3  constraint1_320  1
    Z_32_0_3  constraint2_323  1
    Z_32_0_4  OBJ       -1.2364008812170486e-02
    Z_32_0_4  constraint1_320  1
    MARKER    'MARKER'                 'INTEND'
RHS
    RHS1      constraint1_7410  1
    RHS1      constraint1_3190  1
    RHS1      constraint1_5070  1
    RHS1      constraint1_5451  1
    RHS1      constraint1_5450  1
    RHS1      constraint1_6636  1
    RHS1      constraint1_6632  1
    RHS1      constraint1_6631  1
    RHS1      constraint1_5031  1
    RHS1      constraint1_5030  1
    RHS1      constraint1_5731  1
    RHS1      constraint1_5730  1
    RHS1      constraint1_320  1
    RHS1      constraint2_7410  1
    RHS1      constraint2_7411  1
    RHS1      constraint2_7412  1
    RHS1      constraint2_7413  1
    RHS1      constraint2_3190  1
    RHS1      constraint2_3191  1
    RHS1      constraint2_3192  1
    RHS1      constraint2_3193  1
    RHS1      constraint2_5070  1
    RHS1      constraint2_5071  1
    RHS1      constraint2_5072  1
    RHS1      constraint2_5073  1
    RHS1      constraint2_5450  1
    RHS1      constraint2_5451  1
    RHS1      constraint2_5452  1
    RHS1      constraint2_5453  1
    RHS1      constraint2_6630  1
    RHS1      constraint2_6631  1
    RHS1      constraint2_6632  1
    RHS1      constraint2_6633  1
    RHS1      constraint2_5030  1
    RHS1      constraint2_5031  1
    RHS1      constraint2_5032  1
    RHS1      constraint2_5033  1
    RHS1      constraint2_5730  1
    RHS1      constraint2_5731  1
    RHS1      constraint2_5732  1
    RHS1      constraint2_5733  1
    RHS1      constraint2_1900  1
    RHS1      constraint2_1901  1
    RHS1      constraint2_1902  1
    RHS1      constraint2_1903  1
    RHS1      constraint2_320  1
    RHS1      constraint2_321  1
    RHS1      constraint2_322  1
    RHS1      constraint2_323  1
BOUNDS
 UP BND1      Z_741_0_0  1
 UP BND1      Z_741_0_1  1
 UP BND1      Z_741_0_2  1
 UP BND1      Z_741_0_3  1
 UP BND1      Z_741_0_4  1
 UP BND1      Z_319_0_0  1
 UP BND1      Z_319_0_1  1
 UP BND1      Z_319_0_2  1
 UP BND1      Z_319_0_3  1
 UP BND1      Z_319_0_4  1
 UP BND1      Z_507_0_0  1
 UP BND1      Z_507_0_1  1
 UP BND1      Z_507_0_2  1
 UP BND1      Z_507_0_3  1
 UP BND1      Z_507_0_4  1
 UP BND1      Z_545_1_0  1
 UP BND1      Z_545_1_1  1
 UP BND1      Z_545_1_2  1
 UP BND1      Z_545_1_3  1
 UP BND1      Z_545_1_4  1
 UP BND1      Z_545_0_0  1
 UP BND1      Z_545_0_1  1
 UP BND1      Z_545_0_2  1
 UP BND1      Z_545_0_3  1
 UP BND1      Z_545_0_4  1
 UP BND1      Z_663_6_0  1
 UP BND1      Z_663_6_1  1
 UP BND1      Z_663_6_2  1
 UP BND1      Z_663_6_3  1
 UP BND1      Z_663_6_4  1
 UP BND1      Z_663_2_0  1
 UP BND1      Z_663_2_1  1
 UP BND1      Z_663_2_2  1
 UP BND1      Z_663_2_3  1
 UP BND1      Z_663_2_4  1
 UP BND1      Z_663_1_0  1
 UP BND1      Z_663_1_1  1
 UP BND1      Z_663_1_2  1
 UP BND1      Z_663_1_3  1
 UP BND1      Z_663_1_4  1
 UP BND1      Z_503_1_0  1
 UP BND1      Z_503_1_1  1
 UP BND1      Z_503_1_2  1
 UP BND1      Z_503_1_3  1
 UP BND1      Z_503_1_4  1
 UP BND1      Z_503_0_0  1
 UP BND1      Z_503_0_1  1
 UP BND1      Z_503_0_2  1
 UP BND1      Z_503_0_3  1
 UP BND1      Z_503_0_4  1
 UP BND1      Z_573_1_0  1
 UP BND1      Z_573_1_1  1
 UP BND1      Z_573_1_2  1
 UP BND1      Z_573_1_3  1
 UP BND1      Z_573_1_4  1
 UP BND1      Z_573_0_0  1
 UP BND1      Z_573_0_1  1
 UP BND1      Z_573_0_2  1
 UP BND1      Z_573_0_3  1
 UP BND1      Z_573_0_4  1
 UP BND1      Z_32_0_0  1
 UP BND1      Z_32_0_1  1
 UP BND1      Z_32_0_2  1
 UP BND1      Z_32_0_3  1
 UP BND1      Z_32_0_4  1
ENDATA
