ilp_joint/output/conduction_ilp.sol
# Solution for model conduction_srl_ilp
# Objective value = 1.9711387449637781e+00
Z_634_0_0 1
Z_634_0_1 0
Z_634_0_2 0
Z_634_0_3 0
Z_375_0_0 0
Z_375_0_1 0
Z_375_0_2 1
Z_375_0_3 0
Z_600_0_0 0
Z_600_0_1 0
Z_600_0_2 1
Z_600_0_3 0
Z_243_0_0 1
Z_243_0_1 0
Z_243_0_2 0
Z_243_0_3 0
Z_243_1_0 0
Z_243_1_1 0
Z_243_1_2 1
Z_243_1_3 0
